data/MCDM/NO_CORR/GEN_FROM_60/13_ITEMS_1000_GEN/K5013W20.KNP.mps
NAME          BLANK   
ROWS
 N  OBJROW
 L  R0000000
COLUMNS
    C0000000  OBJROW     -855.         R0000000  707.        
    C0000001  OBJROW     -802.         R0000000  791.        
    C0000002  OBJROW     -159.         R0000000  914.        
    C0000003  OBJROW     -184.         R0000000  342.        
    C0000004  OBJROW     -369.         R0000000  954.        
    C0000005  OBJROW     -145.         R0000000  743.        
    C0000006  OBJROW     -154.         R0000000  870.        
    C0000007  OBJROW     -480.         R0000000  946.        
    C0000008  OBJROW     -867.         R0000000  832.        
    C0000009  OBJROW     -586.         R0000000  211.        
    C0000010  OBJROW     -439.         R0000000  450.        
    C0000011  OBJROW     -512.         R0000000  347.        
    C0000012  OBJROW     -733.         R0000000  719.        
RHS
    RHS       R0000000  15098.      
BOUNDS
 BV BOUND     C0000000  1.          
 BV BOUND     C0000001  1.          
 BV BOUND     C0000002  1.          
 BV BOUND     C0000003  1.          
 BV BOUND     C0000004  1.          
 BV BOUND     C0000005  1.          
 BV BOUND     C0000006  1.          
 BV BOUND     C0000007  1.          
 BV BOUND     C0000008  1.          
 BV BOUND     C0000009  1.          
 BV BOUND     C0000010  1.          
 BV BOUND     C0000011  1.          
 BV BOUND     C0000012  1.          
ENDATA
