data/MCDM/NO_CORR/GEN_FROM_60/13_ITEMS_1000_GEN/K5013W20.KNP.txt
N 13
M 14
LC 13
LC 14
LC 15
LC 16
LC 17
LC 18
LC 19
LC 20
LC 21
LC 22
LC 23
LC 24
LC 25
LR 1
LR 2
LR 3
LR 4
LR 5
LR 6
LR 7
LR 8
LR 9
LR 10
LR 11
LR 12
LR 13
LR 14
LO -855
LO -802
LO -159
LO -184
LO -369
LO -145
LO -154
LO -480
LO -867
LO -586
LO -439
LO -512
LO -733
OS 1
IC 608
IC 754
IC 107
IC 991
IC 388
IC 419
IC 800
IC 196
IC 768
IC 682
IC 641
IC 986
IC 39
IB 3690
